
Gurobi 10.0.3 (mac64[x86], gurobi_cl) logging started Thu Apr 11 22:39:31 2024

Set parameter CSManager to value "https://gurobi.dev.ithaca.finance"
Set parameter CSAPIAccessID
Set parameter CSAPISecret
Set parameter CSAppName to value "Xintong-Wang-PC"
Set parameter LogFile to value "gurobi.log"

Gurobi 10.0.3 (mac64[x86], gurobi_cl) logging started Thu Apr 11 22:42:16 2024

Set parameter CSManager to value "https://gurobi.dev.ithaca.finance"
Set parameter CSAPIAccessID
Set parameter CSAPISecret
Set parameter CSAppName to value "Xintong-Wang-PC"
Set parameter LogFile to value "gurobi.log"

Gurobi 10.0.3 (mac64[x86], gurobi_cl) logging started Thu Apr 11 22:44:52 2024

Set parameter CSManager to value "https://gurobi.dev.ithaca.finance"
Set parameter CSAPIAccessID
Set parameter CSAPISecret
Set parameter CSAppName to value "Xintong-Wang-PC"
Set parameter LogFile to value "gurobi.log"

Gurobi 10.0.3 (mac64[x86], gurobi_cl) logging started Wed Apr 17 12:24:12 2024

Set parameter CSManager to value "https://gurobi.dev.ithaca.finance"
Set parameter CSAPIAccessID
Set parameter CSAPISecret
Set parameter CSAppName to value "Xintong-Wang-PC"
Set parameter LogFile to value "gurobi.log"
